120
150
53
51
51
46
46
51
60
60
46
56
56
50
44
46
60
58
51
51
44
44
53
46
52
49
41
49
41
58
51
52
56
60
50
49
42
58
43
58
51
41
48
58
50
60
51
56
52
46
53
53
52
48
44
43
44
58
56
53
50
53
60
60
44
52
47
45
53
42
60
60
48
46
50
40
51
49
44
53
45
52
56
49
58
50
51
56
46
58
50
46
45
60
42
51
53
59
41
46
43
50
40
44
55
51
50
58
41
58
42
43
53
56
57
49
41
46
47
60
60
51
